NAME          
ROWS
 N  OBJ
 L  c1
 L  c2
 L  c3
COLUMNS
    MARKER    'MARKER'                 'INTORG'
    x[1]      c1        451
    x[1]      c2        314
    x[1]      c3        520
    x[1]      OBJ       -925
    x[2]      c1        259
    x[2]      c2        894
    x[2]      c3        35
    x[2]      OBJ       -506
    x[3]      c1        863
    x[3]      c2        463
    x[3]      c3        3
    x[3]      OBJ       -261
    x[4]      c1        993
    x[4]      c2        740
    x[4]      c3        153
    x[4]      OBJ       -576
    x[5]      c1        983
    x[5]      c2        123
    x[5]      c3        660
    x[5]      OBJ       -967
    x[6]      c1        416
    x[6]      c2        971
    x[6]      c3        463
    x[6]      OBJ       -918
    x[7]      c1        693
    x[7]      c2        870
    x[7]      c3        728
    x[7]      OBJ       -439
    x[8]      c1        451
    x[8]      c2        929
    x[8]      c3        110
    x[8]      OBJ       -766
    x[9]      c1        256
    x[9]      c2        142
    x[9]      c3        967
    x[9]      OBJ       -973
    x[10]     c1        712
    x[10]     c2        65
    x[10]     c3        637
    x[10]     OBJ       -599
    x[11]     c1        992
    x[11]     c2        611
    x[11]     c3        44
    x[11]     OBJ       -545
    x[12]     c1        66
    x[12]     c2        913
    x[12]     c3        56
    x[12]     OBJ       -38
    x[13]     c1        604
    x[13]     c2        840
    x[13]     c3        29
    x[13]     OBJ       -774
    x[14]     c1        545
    x[14]     c2        377
    x[14]     c3        898
    x[14]     OBJ       -189
    x[15]     c1        250
    x[15]     c2        477
    x[15]     c3        21
    x[15]     OBJ       -623
    x[16]     c1        676
    x[16]     c2        438
    x[16]     c3        860
    x[16]     OBJ       -50
    x[17]     c1        190
    x[17]     c2        67
    x[17]     c3        730
    x[17]     OBJ       -723
    x[18]     c1        234
    x[18]     c2        588
    x[18]     c3        778
    x[18]     OBJ       -7
    x[19]     c1        992
    x[19]     c2        890
    x[19]     c3        920
    x[19]     OBJ       -693
    x[20]     c1        359
    x[20]     c2        37
    x[20]     c3        611
    x[20]     OBJ       -886
    x[21]     c1        325
    x[21]     c2        126
    x[21]     c3        743
    x[21]     OBJ       -350
    x[22]     c1        926
    x[22]     c2        927
    x[22]     c3        890
    x[22]     OBJ       -220
    x[23]     c1        70
    x[23]     c2        732
    x[23]     c3        850
    x[23]     OBJ       -744
    x[24]     c1        513
    x[24]     c2        840
    x[24]     c3        648
    x[24]     OBJ       -131
    x[25]     c1        976
    x[25]     c2        450
    x[25]     c3        996
    x[25]     OBJ       -10
    x[26]     c1        976
    x[26]     c2        889
    x[26]     c3        99
    x[26]     OBJ       -187
    x[27]     c1        322
    x[27]     c2        693
    x[27]     c3        727
    x[27]     OBJ       -301
    x[28]     c1        874
    x[28]     c2        739
    x[28]     c3        831
    x[28]     OBJ       -775
    x[29]     c1        329
    x[29]     c2        564
    x[29]     c3        480
    x[29]     OBJ       -642
    x[30]     c1        23
    x[30]     c2        391
    x[30]     c3        54
    x[30]     OBJ       -966
    x[31]     c1        741
    x[31]     c2        907
    x[31]     c3        970
    x[31]     OBJ       -568
    x[32]     c1        304
    x[32]     c2        612
    x[32]     c3        532
    x[32]     OBJ       -886
    x[33]     c1        257
    x[33]     c2        867
    x[33]     c3        151
    x[33]     OBJ       -850
    x[34]     c1        437
    x[34]     c2        710
    x[34]     c3        885
    x[34]     OBJ       -984
    x[35]     c1        452
    x[35]     c2        902
    x[35]     c3        665
    x[35]     OBJ       -943
    x[36]     c1        717
    x[36]     c2        984
    x[36]     c3        451
    x[36]     OBJ       -556
    x[37]     c1        639
    x[37]     c2        840
    x[37]     c3        304
    x[37]     OBJ       -966
    x[38]     c1        506
    x[38]     c2        580
    x[38]     c3        238
    x[38]     OBJ       -171
    x[39]     c1        196
    x[39]     c2        827
    x[39]     c3        225
    x[39]     OBJ       -68
    x[40]     c1        881
    x[40]     c2        485
    x[40]     c3        972
    x[40]     OBJ       -153
    x[41]     c1        52
    x[41]     c2        498
    x[41]     c3        64
    x[41]     OBJ       -737
    x[42]     c1        499
    x[42]     c2        249
    x[42]     c3        365
    x[42]     OBJ       -131
    x[43]     c1        51
    x[43]     c2        135
    x[43]     c3        615
    x[43]     OBJ       -622
    x[44]     c1        691
    x[44]     c2        973
    x[44]     c3        902
    x[44]     OBJ       -329
    x[45]     c1        346
    x[45]     c2        398
    x[45]     c3        241
    x[45]     OBJ       -952
    x[46]     c1        847
    x[46]     c2        67
    x[46]     c3        876
    x[46]     OBJ       -256
    x[47]     c1        895
    x[47]     c2        493
    x[47]     c3        851
    x[47]     OBJ       -88
    x[48]     c1        315
    x[48]     c2        683
    x[48]     c3        680
    x[48]     OBJ       -171
    x[49]     c1        49
    x[49]     c2        899
    x[49]     c3        561
    x[49]     OBJ       -899
    x[50]     c1        90
    x[50]     c2        106
    x[50]     c3        935
    x[50]     OBJ       -774
RHS
    rhs       c1        12642
    rhs       c2        14658
    rhs       c3        13512
RANGES
BOUNDS
 BV bounds    x[1]
 BV bounds    x[2]
 BV bounds    x[3]
 BV bounds    x[4]
 BV bounds    x[5]
 BV bounds    x[6]
 BV bounds    x[7]
 BV bounds    x[8]
 BV bounds    x[9]
 BV bounds    x[10]
 BV bounds    x[11]
 BV bounds    x[12]
 BV bounds    x[13]
 BV bounds    x[14]
 BV bounds    x[15]
 BV bounds    x[16]
 BV bounds    x[17]
 BV bounds    x[18]
 BV bounds    x[19]
 BV bounds    x[20]
 BV bounds    x[21]
 BV bounds    x[22]
 BV bounds    x[23]
 BV bounds    x[24]
 BV bounds    x[25]
 BV bounds    x[26]
 BV bounds    x[27]
 BV bounds    x[28]
 BV bounds    x[29]
 BV bounds    x[30]
 BV bounds    x[31]
 BV bounds    x[32]
 BV bounds    x[33]
 BV bounds    x[34]
 BV bounds    x[35]
 BV bounds    x[36]
 BV bounds    x[37]
 BV bounds    x[38]
 BV bounds    x[39]
 BV bounds    x[40]
 BV bounds    x[41]
 BV bounds    x[42]
 BV bounds    x[43]
 BV bounds    x[44]
 BV bounds    x[45]
 BV bounds    x[46]
 BV bounds    x[47]
 BV bounds    x[48]
 BV bounds    x[49]
 BV bounds    x[50]
ENDATA
